
Gurobi 9.5.2 (mac64[arm]) logging started Fri Apr  7 14:18:08 2023

Set parameter LogFile to value "./ccga_results/2023-04-07 14-18-07-382/MSP_TimeStampConvert_gurobi_log.txt"

Gurobi 9.5.2 (mac64[arm]) logging started Fri Apr  7 14:18:08 2023

Set parameter LogFile to value "./ccga_results/2023-04-07 14-18-07-382/MSP_TimeStampConvert_gurobi_log.txt"
Set parameter TimeLimit to value 180
Gurobi Optimizer version 9.5.2 build v9.5.2rc0 (mac64[arm])
Thread count: 8 physical cores, 8 logical processors, using up to 8 threads
Optimize a model with 100 rows, 77 columns and 242 nonzeros
Model fingerprint: 0xd266c645
Variable types: 5 continuous, 72 integer (72 binary)
Coefficient statistics:
  Matrix range     [1e+00, 1e+00]
  Objective range  [1e+00, 1e+00]
  Bounds range     [5e+02, 5e+02]
  RHS range        [1e+00, 1e+00]
Found heuristic solution: objective 2000.0000000

Explored 0 nodes (0 simplex iterations) in 0.00 seconds (0.00 work units)
Thread count was 1 (of 8 available processors)

Solution count 1: 2000 

Optimal solution found (tolerance 5.00e-02)
Best objective 2.000000000000e+03, best bound 2.000000000000e+03, gap 0.0000%

User-callback calls 21, time in user-callback 0.00 sec
Gurobi Optimizer version 9.5.2 build v9.5.2rc0 (mac64[arm])
Thread count: 8 physical cores, 8 logical processors, using up to 8 threads
Optimize a model with 353 rows, 161 columns and 1019 nonzeros
Model fingerprint: 0xe0bc4c77
Variable types: 81 continuous, 80 integer (80 binary)
Coefficient statistics:
  Matrix range     [6e-01, 8e+02]
  Objective range  [1e+00, 1e+00]
  Bounds range     [5e+02, 5e+02]
  RHS range        [1e+00, 1e+08]

MIP start from previous solve did not produce a new incumbent solution

Presolve removed 161 rows and 74 columns
Presolve time: 0.00s
Presolved: 192 rows, 87 columns, 603 nonzeros
Variable types: 57 continuous, 30 integer (30 binary)
Found heuristic solution: objective 1609.5625277

Explored 0 nodes (0 simplex iterations) in 0.00 seconds (0.00 work units)
Thread count was 8 (of 8 available processors)

Solution count 1: 1609.56 

Optimal solution found (tolerance 5.00e-02)
Best objective 1.609562527658e+03, best bound 1.609562527658e+03, gap 0.0000%

User-callback calls 462, time in user-callback 0.00 sec
Gurobi Optimizer version 9.5.2 build v9.5.2rc0 (mac64[arm])
Thread count: 8 physical cores, 8 logical processors, using up to 8 threads
Optimize a model with 606 rows, 245 columns and 1796 nonzeros
Model fingerprint: 0xa1733632
Variable types: 157 continuous, 88 integer (88 binary)
Coefficient statistics:
  Matrix range     [6e-01, 8e+02]
  Objective range  [1e+00, 1e+00]
  Bounds range     [5e+02, 5e+02]
  RHS range        [1e+00, 1e+08]

MIP start from previous solve did not produce a new incumbent solution

Presolve removed 273 rows and 111 columns
Presolve time: 0.00s
Presolved: 333 rows, 134 columns, 1005 nonzeros
Variable types: 110 continuous, 24 integer (24 binary)
Found heuristic solution: objective 1238.9126862

Explored 0 nodes (0 simplex iterations) in 0.01 seconds (0.01 work units)
Thread count was 8 (of 8 available processors)

Solution count 1: 1238.91 

Optimal solution found (tolerance 5.00e-02)
Best objective 1.238912686166e+03, best bound 1.238912686166e+03, gap 0.0000%

User-callback calls 492, time in user-callback 0.00 sec
Gurobi Optimizer version 9.5.2 build v9.5.2rc0 (mac64[arm])
Thread count: 8 physical cores, 8 logical processors, using up to 8 threads
Optimize a model with 859 rows, 329 columns and 2573 nonzeros
Model fingerprint: 0x56995bcc
Variable types: 233 continuous, 96 integer (96 binary)
Coefficient statistics:
  Matrix range     [6e-01, 8e+02]
  Objective range  [1e+00, 1e+00]
  Bounds range     [5e+02, 5e+02]
  RHS range        [1e+00, 1e+08]

MIP start from previous solve did not produce a new incumbent solution

Presolve removed 430 rows and 163 columns
Presolve time: 0.00s
Presolved: 429 rows, 166 columns, 1164 nonzeros
Variable types: 160 continuous, 6 integer (6 binary)
Found heuristic solution: objective 848.5238986

Explored 0 nodes (0 simplex iterations) in 0.01 seconds (0.01 work units)
Thread count was 8 (of 8 available processors)

Solution count 1: 848.524 

Optimal solution found (tolerance 5.00e-02)
Best objective 8.485238986438e+02, best bound 8.485238986438e+02, gap 0.0000%

User-callback calls 508, time in user-callback 0.00 sec
Gurobi Optimizer version 9.5.2 build v9.5.2rc0 (mac64[arm])
Thread count: 8 physical cores, 8 logical processors, using up to 8 threads
Optimize a model with 1112 rows, 413 columns and 3350 nonzeros
Model fingerprint: 0xa4efe583
Variable types: 309 continuous, 104 integer (104 binary)
Coefficient statistics:
  Matrix range     [6e-01, 8e+02]
  Objective range  [1e+00, 1e+00]
  Bounds range     [5e+02, 5e+02]
  RHS range        [1e+00, 1e+08]

MIP start from previous solve did not produce a new incumbent solution

Presolve removed 602 rows and 205 columns
Presolve time: 0.00s
Presolved: 510 rows, 208 columns, 1204 nonzeros
Variable types: 208 continuous, 0 integer (0 binary)

Root relaxation: objective 4.864609e+02, 332 iterations, 0.00 seconds (0.00 work units)

    Nodes    |    Current Node    |     Objective Bounds      |     Work
 Expl Unexpl |  Obj  Depth IntInf | Incumbent    BestBd   Gap | It/Node Time

*    0     0               0     486.4609121  486.46091  0.00%     -    0s

Explored 1 nodes (332 simplex iterations) in 0.02 seconds (0.01 work units)
Thread count was 8 (of 8 available processors)

Solution count 1: 486.461 

Optimal solution found (tolerance 5.00e-02)
Best objective 4.864609120613e+02, best bound 4.864609120613e+02, gap 0.0000%

User-callback calls 393, time in user-callback 0.00 sec
